c *********************************
c * Circuit generated by BenCGen
c *
c * RippleCarryAdderSubtractor_53_53_53_OutSunT
c *
c * Ports with 1 gate(s): 2
c * Ports with 2 gate(s): 320
c * Total gates: 322
c *********************************
p cnf 428 1124
1 162 0
-1 -162 0
1 -161 0
162 -161 0
-1 -162 161 0
161 163 0
-161 -163 0
54 161 -164 0
-54 161 164 0
54 -161 164 0
-54 -161 -164 0
55 161 -165 0
-55 161 165 0
55 -161 165 0
-55 -161 -165 0
56 161 -166 0
-56 161 166 0
56 -161 166 0
-56 -161 -166 0
57 161 -167 0
-57 161 167 0
57 -161 167 0
-57 -161 -167 0
58 161 -168 0
-58 161 168 0
58 -161 168 0
-58 -161 -168 0
59 161 -169 0
-59 161 169 0
59 -161 169 0
-59 -161 -169 0
60 161 -170 0
-60 161 170 0
60 -161 170 0
-60 -161 -170 0
61 161 -171 0
-61 161 171 0
61 -161 171 0
-61 -161 -171 0
62 161 -172 0
-62 161 172 0
62 -161 172 0
-62 -161 -172 0
63 161 -173 0
-63 161 173 0
63 -161 173 0
-63 -161 -173 0
64 161 -174 0
-64 161 174 0
64 -161 174 0
-64 -161 -174 0
65 161 -175 0
-65 161 175 0
65 -161 175 0
-65 -161 -175 0
66 161 -176 0
-66 161 176 0
66 -161 176 0
-66 -161 -176 0
67 161 -177 0
-67 161 177 0
67 -161 177 0
-67 -161 -177 0
68 161 -178 0
-68 161 178 0
68 -161 178 0
-68 -161 -178 0
69 161 -179 0
-69 161 179 0
69 -161 179 0
-69 -161 -179 0
70 161 -180 0
-70 161 180 0
70 -161 180 0
-70 -161 -180 0
71 161 -181 0
-71 161 181 0
71 -161 181 0
-71 -161 -181 0
72 161 -182 0
-72 161 182 0
72 -161 182 0
-72 -161 -182 0
73 161 -183 0
-73 161 183 0
73 -161 183 0
-73 -161 -183 0
74 161 -184 0
-74 161 184 0
74 -161 184 0
-74 -161 -184 0
75 161 -185 0
-75 161 185 0
75 -161 185 0
-75 -161 -185 0
76 161 -186 0
-76 161 186 0
76 -161 186 0
-76 -161 -186 0
77 161 -187 0
-77 161 187 0
77 -161 187 0
-77 -161 -187 0
78 161 -188 0
-78 161 188 0
78 -161 188 0
-78 -161 -188 0
79 161 -189 0
-79 161 189 0
79 -161 189 0
-79 -161 -189 0
80 161 -190 0
-80 161 190 0
80 -161 190 0
-80 -161 -190 0
81 161 -191 0
-81 161 191 0
81 -161 191 0
-81 -161 -191 0
82 161 -192 0
-82 161 192 0
82 -161 192 0
-82 -161 -192 0
83 161 -193 0
-83 161 193 0
83 -161 193 0
-83 -161 -193 0
84 161 -194 0
-84 161 194 0
84 -161 194 0
-84 -161 -194 0
85 161 -195 0
-85 161 195 0
85 -161 195 0
-85 -161 -195 0
86 161 -196 0
-86 161 196 0
86 -161 196 0
-86 -161 -196 0
87 161 -197 0
-87 161 197 0
87 -161 197 0
-87 -161 -197 0
88 161 -198 0
-88 161 198 0
88 -161 198 0
-88 -161 -198 0
89 161 -199 0
-89 161 199 0
89 -161 199 0
-89 -161 -199 0
90 161 -200 0
-90 161 200 0
90 -161 200 0
-90 -161 -200 0
91 161 -201 0
-91 161 201 0
91 -161 201 0
-91 -161 -201 0
92 161 -202 0
-92 161 202 0
92 -161 202 0
-92 -161 -202 0
93 161 -203 0
-93 161 203 0
93 -161 203 0
-93 -161 -203 0
94 161 -204 0
-94 161 204 0
94 -161 204 0
-94 -161 -204 0
95 161 -205 0
-95 161 205 0
95 -161 205 0
-95 -161 -205 0
96 161 -206 0
-96 161 206 0
96 -161 206 0
-96 -161 -206 0
97 161 -207 0
-97 161 207 0
97 -161 207 0
-97 -161 -207 0
98 161 -208 0
-98 161 208 0
98 -161 208 0
-98 -161 -208 0
99 161 -209 0
-99 161 209 0
99 -161 209 0
-99 -161 -209 0
100 161 -210 0
-100 161 210 0
100 -161 210 0
-100 -161 -210 0
101 161 -211 0
-101 161 211 0
101 -161 211 0
-101 -161 -211 0
102 161 -212 0
-102 161 212 0
102 -161 212 0
-102 -161 -212 0
103 161 -213 0
-103 161 213 0
103 -161 213 0
-103 -161 -213 0
104 161 -214 0
-104 161 214 0
104 -161 214 0
-104 -161 -214 0
105 161 -215 0
-105 161 215 0
105 -161 215 0
-105 -161 -215 0
106 161 -216 0
-106 161 216 0
106 -161 216 0
-106 -161 -216 0
1 164 -218 0
-1 164 218 0
1 -164 218 0
-1 -164 -218 0
218 161 -107 0
-218 161 107 0
218 -161 107 0
-218 -161 -107 0
161 -219 0
218 -219 0
-161 -218 219 0
164 -220 0
1 -220 0
-164 -1 220 0
-219 217 0
-220 217 0
219 220 -217 0
2 165 -222 0
-2 165 222 0
2 -165 222 0
-2 -165 -222 0
222 217 -108 0
-222 217 108 0
222 -217 108 0
-222 -217 -108 0
217 -223 0
222 -223 0
-217 -222 223 0
165 -224 0
2 -224 0
-165 -2 224 0
-223 221 0
-224 221 0
223 224 -221 0
3 166 -226 0
-3 166 226 0
3 -166 226 0
-3 -166 -226 0
226 221 -109 0
-226 221 109 0
226 -221 109 0
-226 -221 -109 0
221 -227 0
226 -227 0
-221 -226 227 0
166 -228 0
3 -228 0
-166 -3 228 0
-227 225 0
-228 225 0
227 228 -225 0
4 167 -230 0
-4 167 230 0
4 -167 230 0
-4 -167 -230 0
230 225 -110 0
-230 225 110 0
230 -225 110 0
-230 -225 -110 0
225 -231 0
230 -231 0
-225 -230 231 0
167 -232 0
4 -232 0
-167 -4 232 0
-231 229 0
-232 229 0
231 232 -229 0
5 168 -234 0
-5 168 234 0
5 -168 234 0
-5 -168 -234 0
234 229 -111 0
-234 229 111 0
234 -229 111 0
-234 -229 -111 0
229 -235 0
234 -235 0
-229 -234 235 0
168 -236 0
5 -236 0
-168 -5 236 0
-235 233 0
-236 233 0
235 236 -233 0
6 169 -238 0
-6 169 238 0
6 -169 238 0
-6 -169 -238 0
238 233 -112 0
-238 233 112 0
238 -233 112 0
-238 -233 -112 0
233 -239 0
238 -239 0
-233 -238 239 0
169 -240 0
6 -240 0
-169 -6 240 0
-239 237 0
-240 237 0
239 240 -237 0
7 170 -242 0
-7 170 242 0
7 -170 242 0
-7 -170 -242 0
242 237 -113 0
-242 237 113 0
242 -237 113 0
-242 -237 -113 0
237 -243 0
242 -243 0
-237 -242 243 0
170 -244 0
7 -244 0
-170 -7 244 0
-243 241 0
-244 241 0
243 244 -241 0
8 171 -246 0
-8 171 246 0
8 -171 246 0
-8 -171 -246 0
246 241 -114 0
-246 241 114 0
246 -241 114 0
-246 -241 -114 0
241 -247 0
246 -247 0
-241 -246 247 0
171 -248 0
8 -248 0
-171 -8 248 0
-247 245 0
-248 245 0
247 248 -245 0
9 172 -250 0
-9 172 250 0
9 -172 250 0
-9 -172 -250 0
250 245 -115 0
-250 245 115 0
250 -245 115 0
-250 -245 -115 0
245 -251 0
250 -251 0
-245 -250 251 0
172 -252 0
9 -252 0
-172 -9 252 0
-251 249 0
-252 249 0
251 252 -249 0
10 173 -254 0
-10 173 254 0
10 -173 254 0
-10 -173 -254 0
254 249 -116 0
-254 249 116 0
254 -249 116 0
-254 -249 -116 0
249 -255 0
254 -255 0
-249 -254 255 0
173 -256 0
10 -256 0
-173 -10 256 0
-255 253 0
-256 253 0
255 256 -253 0
11 174 -258 0
-11 174 258 0
11 -174 258 0
-11 -174 -258 0
258 253 -117 0
-258 253 117 0
258 -253 117 0
-258 -253 -117 0
253 -259 0
258 -259 0
-253 -258 259 0
174 -260 0
11 -260 0
-174 -11 260 0
-259 257 0
-260 257 0
259 260 -257 0
12 175 -262 0
-12 175 262 0
12 -175 262 0
-12 -175 -262 0
262 257 -118 0
-262 257 118 0
262 -257 118 0
-262 -257 -118 0
257 -263 0
262 -263 0
-257 -262 263 0
175 -264 0
12 -264 0
-175 -12 264 0
-263 261 0
-264 261 0
263 264 -261 0
13 176 -266 0
-13 176 266 0
13 -176 266 0
-13 -176 -266 0
266 261 -119 0
-266 261 119 0
266 -261 119 0
-266 -261 -119 0
261 -267 0
266 -267 0
-261 -266 267 0
176 -268 0
13 -268 0
-176 -13 268 0
-267 265 0
-268 265 0
267 268 -265 0
14 177 -270 0
-14 177 270 0
14 -177 270 0
-14 -177 -270 0
270 265 -120 0
-270 265 120 0
270 -265 120 0
-270 -265 -120 0
265 -271 0
270 -271 0
-265 -270 271 0
177 -272 0
14 -272 0
-177 -14 272 0
-271 269 0
-272 269 0
271 272 -269 0
15 178 -274 0
-15 178 274 0
15 -178 274 0
-15 -178 -274 0
274 269 -121 0
-274 269 121 0
274 -269 121 0
-274 -269 -121 0
269 -275 0
274 -275 0
-269 -274 275 0
178 -276 0
15 -276 0
-178 -15 276 0
-275 273 0
-276 273 0
275 276 -273 0
16 179 -278 0
-16 179 278 0
16 -179 278 0
-16 -179 -278 0
278 273 -122 0
-278 273 122 0
278 -273 122 0
-278 -273 -122 0
273 -279 0
278 -279 0
-273 -278 279 0
179 -280 0
16 -280 0
-179 -16 280 0
-279 277 0
-280 277 0
279 280 -277 0
17 180 -282 0
-17 180 282 0
17 -180 282 0
-17 -180 -282 0
282 277 -123 0
-282 277 123 0
282 -277 123 0
-282 -277 -123 0
277 -283 0
282 -283 0
-277 -282 283 0
180 -284 0
17 -284 0
-180 -17 284 0
-283 281 0
-284 281 0
283 284 -281 0
18 181 -286 0
-18 181 286 0
18 -181 286 0
-18 -181 -286 0
286 281 -124 0
-286 281 124 0
286 -281 124 0
-286 -281 -124 0
281 -287 0
286 -287 0
-281 -286 287 0
181 -288 0
18 -288 0
-181 -18 288 0
-287 285 0
-288 285 0
287 288 -285 0
19 182 -290 0
-19 182 290 0
19 -182 290 0
-19 -182 -290 0
290 285 -125 0
-290 285 125 0
290 -285 125 0
-290 -285 -125 0
285 -291 0
290 -291 0
-285 -290 291 0
182 -292 0
19 -292 0
-182 -19 292 0
-291 289 0
-292 289 0
291 292 -289 0
20 183 -294 0
-20 183 294 0
20 -183 294 0
-20 -183 -294 0
294 289 -126 0
-294 289 126 0
294 -289 126 0
-294 -289 -126 0
289 -295 0
294 -295 0
-289 -294 295 0
183 -296 0
20 -296 0
-183 -20 296 0
-295 293 0
-296 293 0
295 296 -293 0
21 184 -298 0
-21 184 298 0
21 -184 298 0
-21 -184 -298 0
298 293 -127 0
-298 293 127 0
298 -293 127 0
-298 -293 -127 0
293 -299 0
298 -299 0
-293 -298 299 0
184 -300 0
21 -300 0
-184 -21 300 0
-299 297 0
-300 297 0
299 300 -297 0
22 185 -302 0
-22 185 302 0
22 -185 302 0
-22 -185 -302 0
302 297 -128 0
-302 297 128 0
302 -297 128 0
-302 -297 -128 0
297 -303 0
302 -303 0
-297 -302 303 0
185 -304 0
22 -304 0
-185 -22 304 0
-303 301 0
-304 301 0
303 304 -301 0
23 186 -306 0
-23 186 306 0
23 -186 306 0
-23 -186 -306 0
306 301 -129 0
-306 301 129 0
306 -301 129 0
-306 -301 -129 0
301 -307 0
306 -307 0
-301 -306 307 0
186 -308 0
23 -308 0
-186 -23 308 0
-307 305 0
-308 305 0
307 308 -305 0
24 187 -310 0
-24 187 310 0
24 -187 310 0
-24 -187 -310 0
310 305 -130 0
-310 305 130 0
310 -305 130 0
-310 -305 -130 0
305 -311 0
310 -311 0
-305 -310 311 0
187 -312 0
24 -312 0
-187 -24 312 0
-311 309 0
-312 309 0
311 312 -309 0
25 188 -314 0
-25 188 314 0
25 -188 314 0
-25 -188 -314 0
314 309 -131 0
-314 309 131 0
314 -309 131 0
-314 -309 -131 0
309 -315 0
314 -315 0
-309 -314 315 0
188 -316 0
25 -316 0
-188 -25 316 0
-315 313 0
-316 313 0
315 316 -313 0
26 189 -318 0
-26 189 318 0
26 -189 318 0
-26 -189 -318 0
318 313 -132 0
-318 313 132 0
318 -313 132 0
-318 -313 -132 0
313 -319 0
318 -319 0
-313 -318 319 0
189 -320 0
26 -320 0
-189 -26 320 0
-319 317 0
-320 317 0
319 320 -317 0
27 190 -322 0
-27 190 322 0
27 -190 322 0
-27 -190 -322 0
322 317 -133 0
-322 317 133 0
322 -317 133 0
-322 -317 -133 0
317 -323 0
322 -323 0
-317 -322 323 0
190 -324 0
27 -324 0
-190 -27 324 0
-323 321 0
-324 321 0
323 324 -321 0
28 191 -326 0
-28 191 326 0
28 -191 326 0
-28 -191 -326 0
326 321 -134 0
-326 321 134 0
326 -321 134 0
-326 -321 -134 0
321 -327 0
326 -327 0
-321 -326 327 0
191 -328 0
28 -328 0
-191 -28 328 0
-327 325 0
-328 325 0
327 328 -325 0
29 192 -330 0
-29 192 330 0
29 -192 330 0
-29 -192 -330 0
330 325 -135 0
-330 325 135 0
330 -325 135 0
-330 -325 -135 0
325 -331 0
330 -331 0
-325 -330 331 0
192 -332 0
29 -332 0
-192 -29 332 0
-331 329 0
-332 329 0
331 332 -329 0
30 193 -334 0
-30 193 334 0
30 -193 334 0
-30 -193 -334 0
334 329 -136 0
-334 329 136 0
334 -329 136 0
-334 -329 -136 0
329 -335 0
334 -335 0
-329 -334 335 0
193 -336 0
30 -336 0
-193 -30 336 0
-335 333 0
-336 333 0
335 336 -333 0
31 194 -338 0
-31 194 338 0
31 -194 338 0
-31 -194 -338 0
338 333 -137 0
-338 333 137 0
338 -333 137 0
-338 -333 -137 0
333 -339 0
338 -339 0
-333 -338 339 0
194 -340 0
31 -340 0
-194 -31 340 0
-339 337 0
-340 337 0
339 340 -337 0
32 195 -342 0
-32 195 342 0
32 -195 342 0
-32 -195 -342 0
342 337 -138 0
-342 337 138 0
342 -337 138 0
-342 -337 -138 0
337 -343 0
342 -343 0
-337 -342 343 0
195 -344 0
32 -344 0
-195 -32 344 0
-343 341 0
-344 341 0
343 344 -341 0
33 196 -346 0
-33 196 346 0
33 -196 346 0
-33 -196 -346 0
346 341 -139 0
-346 341 139 0
346 -341 139 0
-346 -341 -139 0
341 -347 0
346 -347 0
-341 -346 347 0
196 -348 0
33 -348 0
-196 -33 348 0
-347 345 0
-348 345 0
347 348 -345 0
34 197 -350 0
-34 197 350 0
34 -197 350 0
-34 -197 -350 0
350 345 -140 0
-350 345 140 0
350 -345 140 0
-350 -345 -140 0
345 -351 0
350 -351 0
-345 -350 351 0
197 -352 0
34 -352 0
-197 -34 352 0
-351 349 0
-352 349 0
351 352 -349 0
35 198 -354 0
-35 198 354 0
35 -198 354 0
-35 -198 -354 0
354 349 -141 0
-354 349 141 0
354 -349 141 0
-354 -349 -141 0
349 -355 0
354 -355 0
-349 -354 355 0
198 -356 0
35 -356 0
-198 -35 356 0
-355 353 0
-356 353 0
355 356 -353 0
36 199 -358 0
-36 199 358 0
36 -199 358 0
-36 -199 -358 0
358 353 -142 0
-358 353 142 0
358 -353 142 0
-358 -353 -142 0
353 -359 0
358 -359 0
-353 -358 359 0
199 -360 0
36 -360 0
-199 -36 360 0
-359 357 0
-360 357 0
359 360 -357 0
37 200 -362 0
-37 200 362 0
37 -200 362 0
-37 -200 -362 0
362 357 -143 0
-362 357 143 0
362 -357 143 0
-362 -357 -143 0
357 -363 0
362 -363 0
-357 -362 363 0
200 -364 0
37 -364 0
-200 -37 364 0
-363 361 0
-364 361 0
363 364 -361 0
38 201 -366 0
-38 201 366 0
38 -201 366 0
-38 -201 -366 0
366 361 -144 0
-366 361 144 0
366 -361 144 0
-366 -361 -144 0
361 -367 0
366 -367 0
-361 -366 367 0
201 -368 0
38 -368 0
-201 -38 368 0
-367 365 0
-368 365 0
367 368 -365 0
39 202 -370 0
-39 202 370 0
39 -202 370 0
-39 -202 -370 0
370 365 -145 0
-370 365 145 0
370 -365 145 0
-370 -365 -145 0
365 -371 0
370 -371 0
-365 -370 371 0
202 -372 0
39 -372 0
-202 -39 372 0
-371 369 0
-372 369 0
371 372 -369 0
40 203 -374 0
-40 203 374 0
40 -203 374 0
-40 -203 -374 0
374 369 -146 0
-374 369 146 0
374 -369 146 0
-374 -369 -146 0
369 -375 0
374 -375 0
-369 -374 375 0
203 -376 0
40 -376 0
-203 -40 376 0
-375 373 0
-376 373 0
375 376 -373 0
41 204 -378 0
-41 204 378 0
41 -204 378 0
-41 -204 -378 0
378 373 -147 0
-378 373 147 0
378 -373 147 0
-378 -373 -147 0
373 -379 0
378 -379 0
-373 -378 379 0
204 -380 0
41 -380 0
-204 -41 380 0
-379 377 0
-380 377 0
379 380 -377 0
42 205 -382 0
-42 205 382 0
42 -205 382 0
-42 -205 -382 0
382 377 -148 0
-382 377 148 0
382 -377 148 0
-382 -377 -148 0
377 -383 0
382 -383 0
-377 -382 383 0
205 -384 0
42 -384 0
-205 -42 384 0
-383 381 0
-384 381 0
383 384 -381 0
43 206 -386 0
-43 206 386 0
43 -206 386 0
-43 -206 -386 0
386 381 -149 0
-386 381 149 0
386 -381 149 0
-386 -381 -149 0
381 -387 0
386 -387 0
-381 -386 387 0
206 -388 0
43 -388 0
-206 -43 388 0
-387 385 0
-388 385 0
387 388 -385 0
44 207 -390 0
-44 207 390 0
44 -207 390 0
-44 -207 -390 0
390 385 -150 0
-390 385 150 0
390 -385 150 0
-390 -385 -150 0
385 -391 0
390 -391 0
-385 -390 391 0
207 -392 0
44 -392 0
-207 -44 392 0
-391 389 0
-392 389 0
391 392 -389 0
45 208 -394 0
-45 208 394 0
45 -208 394 0
-45 -208 -394 0
394 389 -151 0
-394 389 151 0
394 -389 151 0
-394 -389 -151 0
389 -395 0
394 -395 0
-389 -394 395 0
208 -396 0
45 -396 0
-208 -45 396 0
-395 393 0
-396 393 0
395 396 -393 0
46 209 -398 0
-46 209 398 0
46 -209 398 0
-46 -209 -398 0
398 393 -152 0
-398 393 152 0
398 -393 152 0
-398 -393 -152 0
393 -399 0
398 -399 0
-393 -398 399 0
209 -400 0
46 -400 0
-209 -46 400 0
-399 397 0
-400 397 0
399 400 -397 0
47 210 -402 0
-47 210 402 0
47 -210 402 0
-47 -210 -402 0
402 397 -153 0
-402 397 153 0
402 -397 153 0
-402 -397 -153 0
397 -403 0
402 -403 0
-397 -402 403 0
210 -404 0
47 -404 0
-210 -47 404 0
-403 401 0
-404 401 0
403 404 -401 0
48 211 -406 0
-48 211 406 0
48 -211 406 0
-48 -211 -406 0
406 401 -154 0
-406 401 154 0
406 -401 154 0
-406 -401 -154 0
401 -407 0
406 -407 0
-401 -406 407 0
211 -408 0
48 -408 0
-211 -48 408 0
-407 405 0
-408 405 0
407 408 -405 0
49 212 -410 0
-49 212 410 0
49 -212 410 0
-49 -212 -410 0
410 405 -155 0
-410 405 155 0
410 -405 155 0
-410 -405 -155 0
405 -411 0
410 -411 0
-405 -410 411 0
212 -412 0
49 -412 0
-212 -49 412 0
-411 409 0
-412 409 0
411 412 -409 0
50 213 -414 0
-50 213 414 0
50 -213 414 0
-50 -213 -414 0
414 409 -156 0
-414 409 156 0
414 -409 156 0
-414 -409 -156 0
409 -415 0
414 -415 0
-409 -414 415 0
213 -416 0
50 -416 0
-213 -50 416 0
-415 413 0
-416 413 0
415 416 -413 0
51 214 -418 0
-51 214 418 0
51 -214 418 0
-51 -214 -418 0
418 413 -157 0
-418 413 157 0
418 -413 157 0
-418 -413 -157 0
413 -419 0
418 -419 0
-413 -418 419 0
214 -420 0
51 -420 0
-214 -51 420 0
-419 417 0
-420 417 0
419 420 -417 0
52 215 -422 0
-52 215 422 0
52 -215 422 0
-52 -215 -422 0
422 417 -158 0
-422 417 158 0
422 -417 158 0
-422 -417 -158 0
417 -423 0
422 -423 0
-417 -422 423 0
215 -424 0
52 -424 0
-215 -52 424 0
-423 421 0
-424 421 0
423 424 -421 0
53 216 -426 0
-53 216 426 0
53 -216 426 0
-53 -216 -426 0
426 421 -159 0
-426 421 159 0
426 -421 159 0
-426 -421 -159 0
421 -427 0
426 -427 0
-421 -426 427 0
216 -428 0
53 -428 0
-216 -53 428 0
-427 425 0
-428 425 0
427 428 -425 0
425 161 -160 0
-425 161 160 0
425 -161 160 0
-425 -161 -160 0
